p tw 113 124
1 2
2 26
3 14
4 5
4 12
5 6
6 7
7 8
8 9
9 10
10 11
11 106
12 13
13 15
14 18
15 16
16 17
18 19
18 61
19 20
20 21
21 22
22 23
23 24
23 61
24 25
25 27
26 37
27 28
28 29
29 30
30 31
31 32
32 33
33 34
34 35
35 36
36 38
36 31
37 48
38 39
39 40
40 41
41 42
42 43
43 44
44 45
45 46
46 47
47 49
48 59
49 50
49 16
50 51
51 52
51 43
52 53
53 54
53 43
54 55
55 56
56 57
57 58
57 43
58 60
59 70
60 43
61 62
62 63
63 64
64 65
64 16
65 66
66 67
67 68
67 16
68 69
68 16
69 71
70 81
71 72
72 73
73 74
74 75
75 76
76 77
77 78
78 79
79 80
80 82
81 92
82 83
83 84
84 85
85 86
86 87
87 88
88 89
89 90
90 91
91 93
92 103
93 94
94 95
95 96
96 97
96 104
97 98
98 99
99 100
100 101
101 102
102 104
103 3
104 105
105 106
106 107
107 108
108 109
109 110
110 111
111 112
112 113
113 4
